10J3M/DAT/10J3MUNR-1.dat
10 3
11.0724 44.8846
14.9485 26.002
26.7716 15.8967
10.9797 26.1753
19.7879 14.8542
27.3068 6.1333
10.2949 35.7509
6.5388 1.8011
25.8787 41.7631
36.6062 37.3953
250.6565