10J3M/SOL/10J3MUNR-1.sol
solution status: optimal solution found
objective value:                     89.3675666666666
x#1#3                                               1 	(obj:0)
x#2#2                                               1 	(obj:0)
x#3#1                                               1 	(obj:0)
x#4#1                                               1 	(obj:0)
x#5#1                               0.476274550406211 	(obj:0)
x#5#2                               0.523725449593789 	(obj:0)
x#6#2                                               1 	(obj:0)
x#7#1                                               1 	(obj:0)
x#8#2                              0.0486531737824398 	(obj:0)
x#8#3                                0.95134682621756 	(obj:0)
x#9#1                                               1 	(obj:0)
x#10#1                                              1 	(obj:0)
z                                    89.3675666666666 	(obj:1)
